NAME MasterProb
ROWS
 N  OBJ
 G  c0      
 G  c1      
 G  c2      
 G  c3      
 G  c4      
 G  c5      
 G  c6      
 G  c7      
 G  c8      
 G  c9      
 G  c10     
 G  c11     
 G  c12     
 G  c13     
 G  c14     
 G  c15     
 G  c16     
 G  c17     
 G  c18     
 G  c19     
 G  c20     
 G  c21     
 G  c22     
 G  c23     
 G  c24     
 G  c25     
 G  c26     
COLUMNS
    X[1,1,1]  OBJ       1.1427331779762273e+04
    X[1,1,1]  c0        -600
    X[1,1,1]  c2        -1
    X[1,1,1]  c8        1
    X[1,1,1]  c14       -1
    X[1,1,1]  c20       1
    X[1,1,2]  OBJ       5.2946637246231869e+04
    X[1,1,2]  c0        -2780
    X[1,1,2]  c3        -1
    X[1,1,2]  c9        1
    X[1,1,2]  c15       -1
    X[1,1,2]  c21       1
    X[1,1,3]  OBJ       7.6182211865081827e+03
    X[1,1,3]  c0        -400
    X[1,1,3]  c4        -1
    X[1,1,3]  c10       1
    X[1,1,3]  c16       -1
    X[1,1,3]  c22       1
    X[2,1,1]  OBJ       1.1427331779762273e+04
    X[2,1,1]  c1        -600
    X[2,1,1]  c5        -1
    X[2,1,1]  c11       1
    X[2,1,1]  c17       -1
    X[2,1,1]  c23       1
    X[2,1,2]  OBJ       5.2946637246231869e+04
    X[2,1,2]  c1        -2780
    X[2,1,2]  c6        -1
    X[2,1,2]  c12       1
    X[2,1,2]  c18       -1
    X[2,1,2]  c24       1
    X[2,1,3]  OBJ       7.6182211865081827e+03
    X[2,1,3]  c1        -400
    X[2,1,3]  c7        -1
    X[2,1,3]  c13       1
    X[2,1,3]  c19       -1
    X[2,1,3]  c25       1
    U[1,1]    c0        -200
    U[1,1]    c1        200
    U[1,1]    c14       1000
    U[1,1]    c15       1000
    U[1,1]    c16       400
    U[1,1]    c26       -1
    U[2,1]    OBJ       600
    U[2,1]    c1        -200
    U[2,1]    c17       500
    U[2,1]    c18       500
    U[2,1]    c19       30
    U[2,1]    c26       1
    eta       OBJ       1
RHS
    RHS1      c0        -1000000
    RHS1      c1        -500000
    RHS1      c2        -1000
    RHS1      c3        -1000
    RHS1      c4        -400
    RHS1      c5        -500
    RHS1      c6        -500
    RHS1      c7        -30
BOUNDS
 UP BND1      U[1,1]    1
 UP BND1      U[2,1]    1
 LO BND1      eta       -10000000
ENDATA
